59241.0
1071
1 6 9 16 17 27 31 32 33 36 39 40 41 47 51 53 58 59 60 62 66 67 69 72 82 89 93 94 96 97 98 101 102 109 111 113 119 123 127 129 130 132 134 135 138 141 143 147 148 149 150 151 153 154 162 169 174 181 186 193 197 198 